; DUP1 MLOAD PUSH cw_1 SLOAD SWAP1 => PUSH cw_1 SLOAD DUP2 MLOAD
(set-option :produce-proofs true)
; 
(set-info :status unknown)
(declare-fun storage_t ((_ BitVec 256) (_ BitVec 256) (_ BitVec 256) (_ BitVec 256) Int (_ BitVec 256)) (_ BitVec 256))
(declare-fun w_1 () (_ BitVec 256))
(declare-fun storage_s ((_ BitVec 256) (_ BitVec 256) (_ BitVec 256) (_ BitVec 256) Int (_ BitVec 256)) (_ BitVec 256))
(declare-fun exc_halt_t (Int) Bool)
(declare-fun exc_halt_s (Int) Bool)
(declare-fun stack_t ((_ BitVec 256) (_ BitVec 256) (_ BitVec 256) (_ BitVec 256) Int (_ BitVec 6)) (_ BitVec 256))
(declare-fun stack_s ((_ BitVec 256) (_ BitVec 256) (_ BitVec 256) (_ BitVec 256) Int (_ BitVec 6)) (_ BitVec 256))
(declare-fun sc_t (Int) (_ BitVec 6))
(declare-fun sc_s (Int) (_ BitVec 6))
(declare-fun used_gas_t ((_ BitVec 256) (_ BitVec 256) (_ BitVec 256) (_ BitVec 256) Int) Int)
(declare-fun used_gas_s ((_ BitVec 256) (_ BitVec 256) (_ BitVec 256) (_ BitVec 256) Int) Int)
(declare-fun f_MLOAD ((_ BitVec 256) (_ BitVec 256) (_ BitVec 256) (_ BitVec 256) (_ BitVec 256)) (_ BitVec 256))
(assert
 (exists ((x_0 (_ BitVec 256)) (x_SLOAD_0 (_ BitVec 256)) (x_MLOAD_0 (_ BitVec 256)) )(let (($x900 (forall ((w (_ BitVec 256)) )(let ((?x2026 (storage_t x_0 x_SLOAD_0 w_1 x_MLOAD_0 4 w)))
 (let ((?x6446 (storage_s x_0 x_SLOAD_0 w_1 x_MLOAD_0 5 w)))
 (= ?x6446 ?x2026))))
 ))
 (let (($x7854 (exc_halt_t 4)))
 (let (($x1862 (exc_halt_s 5)))
 (let (($x2802 (= $x1862 $x7854)))
 (let (($x1689 (forall ((n (_ BitVec 6)) )(let ((?x6189 (stack_t x_0 x_SLOAD_0 w_1 x_MLOAD_0 4 n)))
 (let ((?x7102 (stack_s x_0 x_SLOAD_0 w_1 x_MLOAD_0 5 n)))
 (let (($x5600 (= ?x7102 ?x6189)))
 (or (bvsle (sc_t 4) n) $x5600)))))
 ))
 (let ((?x8101 (sc_t 4)))
 (let ((?x4319 (sc_s 5)))
 (let (($x2078 (= ?x4319 ?x8101)))
 (let ((?x7385 (used_gas_t x_0 x_SLOAD_0 w_1 x_MLOAD_0 0)))
 (let ((?x5455 (used_gas_s x_0 x_SLOAD_0 w_1 x_MLOAD_0 0)))
 (let (($x4595 (= ?x5455 ?x7385)))
 (let (($x10495 (forall ((w (_ BitVec 256)) )(let ((?x11604 (storage_t x_0 x_SLOAD_0 w_1 x_MLOAD_0 0 w)))
 (let ((?x4329 (storage_s x_0 x_SLOAD_0 w_1 x_MLOAD_0 0 w)))
 (= ?x4329 ?x11604))))
 ))
 (let (($x56 (exc_halt_t 0)))
 (let (($x57 (exc_halt_s 0)))
 (let (($x58 (= $x57 $x56)))
 (let (($x3923 (forall ((n (_ BitVec 6)) )(let ((?x7142 (stack_t x_0 x_SLOAD_0 w_1 x_MLOAD_0 0 n)))
 (let ((?x6382 (stack_s x_0 x_SLOAD_0 w_1 x_MLOAD_0 0 n)))
 (let (($x782 (= ?x6382 ?x7142)))
 (let ((?x63 (sc_t 0)))
 (let (($x632 (bvsle ?x63 n)))
 (or $x632 $x782)))))))
 ))
 (let ((?x63 (sc_t 0)))
 (let ((?x72 (sc_s 0)))
 (let (($x73 (= ?x72 ?x63)))
 (let (($x6130 (= $x7854 (or (exc_halt_t 3) (not (bvsle (_ bv0 6) (bvadd (_ bv63 6) (sc_t 3))))))))
 (let (($x9905 (forall ((w (_ BitVec 256)) )(let ((?x8798 (storage_t x_0 x_SLOAD_0 w_1 x_MLOAD_0 3 w)))
 (let ((?x2026 (storage_t x_0 x_SLOAD_0 w_1 x_MLOAD_0 4 w)))
 (= ?x2026 ?x8798))))
 ))
 (let (($x209 (forall ((n (_ BitVec 6)) )(let ((?x11964 (sc_t 3)))
 (let ((?x3587 (bvadd (_ bv63 6) ?x11964)))
 (let (($x2993 (bvsle ?x3587 n)))
 (let ((?x6601 (stack_t x_0 x_SLOAD_0 w_1 x_MLOAD_0 3 n)))
 (let ((?x6189 (stack_t x_0 x_SLOAD_0 w_1 x_MLOAD_0 4 n)))
 (or (= ?x6189 ?x6601) $x2993)))))))
 ))
 (let ((?x11964 (sc_t 3)))
 (let (($x1808 (= ?x8101 ?x11964)))
 (let (($x6061 (= (used_gas_t x_0 x_SLOAD_0 w_1 x_MLOAD_0 4) (+ 3 (used_gas_t x_0 x_SLOAD_0 w_1 x_MLOAD_0 3)))))
 (let ((?x3587 (bvadd (_ bv63 6) ?x11964)))
 (let ((?x476 (stack_t x_0 x_SLOAD_0 w_1 x_MLOAD_0 3 ?x3587)))
 (let (($x8019 (= (stack_t x_0 x_SLOAD_0 w_1 x_MLOAD_0 4 (bvadd (_ bv63 6) ?x8101)) (f_MLOAD x_0 x_SLOAD_0 w_1 x_MLOAD_0 ?x476))))
 (let (($x9181 (exc_halt_t 2)))
 (let (($x5147 (or (not (= ((_ extract 6 6) (bvadd (_ bv1 7) (concat (_ bv0 1) (sc_t 2)))) (_ bv0 1))) $x9181 (not (bvsle (_ bv0 6) (bvadd (_ bv62 6) (sc_t 2)))))))
 (let (($x4112 (exc_halt_t 3)))
 (let (($x6070 (forall ((w (_ BitVec 256)) )(let ((?x3887 (storage_t x_0 x_SLOAD_0 w_1 x_MLOAD_0 2 w)))
 (let ((?x8798 (storage_t x_0 x_SLOAD_0 w_1 x_MLOAD_0 3 w)))
 (= ?x8798 ?x3887))))
 ))
 (let (($x7879 (forall ((n (_ BitVec 6)) )(let ((?x2586 (stack_t x_0 x_SLOAD_0 w_1 x_MLOAD_0 2 n)))
 (let ((?x6601 (stack_t x_0 x_SLOAD_0 w_1 x_MLOAD_0 3 n)))
 (or (bvsle (bvadd (_ bv62 6) (sc_t 2)) n) (= ?x6601 ?x2586)))))
 ))
 (let ((?x7844 (used_gas_t x_0 x_SLOAD_0 w_1 x_MLOAD_0 3)))
 (let ((?x6602 (sc_t 2)))
 (let ((?x8103 (bvadd (_ bv63 6) ?x6602)))
 (let ((?x3703 (stack_t x_0 x_SLOAD_0 w_1 x_MLOAD_0 2 ?x8103)))
 (let ((?x3220 (bvadd (_ bv62 6) ?x6602)))
 (let ((?x2979 (stack_t x_0 x_SLOAD_0 w_1 x_MLOAD_0 2 ?x3220)))
 (let (($x6265 (= $x9181 (or (exc_halt_t 1) (not (bvsle (_ bv0 6) (bvadd (_ bv63 6) (sc_t 1))))))))
 (let (($x10238 (forall ((w (_ BitVec 256)) )(let ((?x4965 (storage_t x_0 x_SLOAD_0 w_1 x_MLOAD_0 1 w)))
 (let ((?x3887 (storage_t x_0 x_SLOAD_0 w_1 x_MLOAD_0 2 w)))
 (= ?x3887 ?x4965))))
 ))
 (let (($x4142 (forall ((n (_ BitVec 6)) )(let ((?x6377 (sc_t 1)))
 (let ((?x3243 (bvadd (_ bv63 6) ?x6377)))
 (let (($x11781 (bvsle ?x3243 n)))
 (let ((?x8837 (stack_t x_0 x_SLOAD_0 w_1 x_MLOAD_0 1 n)))
 (let ((?x2586 (stack_t x_0 x_SLOAD_0 w_1 x_MLOAD_0 2 n)))
 (or (= ?x2586 ?x8837) $x11781)))))))
 ))
 (let ((?x2795 (used_gas_t x_0 x_SLOAD_0 w_1 x_MLOAD_0 2)))
 (let ((?x2144 (storage_t x_0 x_SLOAD_0 w_1 x_MLOAD_0 1 (stack_t x_0 x_SLOAD_0 w_1 x_MLOAD_0 1 (bvadd (_ bv63 6) (sc_t 1))))))
 (let (($x5011 (exc_halt_t 1)))
 (let (($x7243 (= $x5011 (or $x56 (not (= ((_ extract 6 6) (bvadd (_ bv1 7) (concat (_ bv0 1) ?x63))) (_ bv0 1)))))))
 (let (($x631 (forall ((w (_ BitVec 256)) )(let ((?x11604 (storage_t x_0 x_SLOAD_0 w_1 x_MLOAD_0 0 w)))
 (let ((?x4965 (storage_t x_0 x_SLOAD_0 w_1 x_MLOAD_0 1 w)))
 (= ?x4965 ?x11604))))
 ))
 (let (($x1806 (forall ((n (_ BitVec 6)) )(let ((?x7142 (stack_t x_0 x_SLOAD_0 w_1 x_MLOAD_0 0 n)))
 (let ((?x8837 (stack_t x_0 x_SLOAD_0 w_1 x_MLOAD_0 1 n)))
 (let ((?x63 (sc_t 0)))
 (let (($x632 (bvsle ?x63 n)))
 (or $x632 (= ?x8837 ?x7142)))))))
 ))
 (let ((?x6377 (sc_t 1)))
 (let (($x11310 (= ?x6377 (bvadd (_ bv1 6) ?x63))))
 (let (($x5223 (= $x1862 (or (exc_halt_s 4) (not (bvsle (_ bv0 6) (bvadd (_ bv62 6) (sc_s 4))))))))
 (let (($x663 (forall ((w (_ BitVec 256)) )(let ((?x2736 (storage_s x_0 x_SLOAD_0 w_1 x_MLOAD_0 4 w)))
 (let ((?x6446 (storage_s x_0 x_SLOAD_0 w_1 x_MLOAD_0 5 w)))
 (= ?x6446 ?x2736))))
 ))
 (let (($x6240 (forall ((n (_ BitVec 6)) )(let ((?x10462 (stack_s x_0 x_SLOAD_0 w_1 x_MLOAD_0 4 n)))
 (let ((?x7102 (stack_s x_0 x_SLOAD_0 w_1 x_MLOAD_0 5 n)))
 (or (bvsle (bvadd (_ bv62 6) (sc_s 4)) n) (= ?x7102 ?x10462)))))
 ))
 (let (($x3203 (= (used_gas_s x_0 x_SLOAD_0 w_1 x_MLOAD_0 5) (+ 3 (used_gas_s x_0 x_SLOAD_0 w_1 x_MLOAD_0 4)))))
 (let ((?x500 (sc_s 4)))
 (let ((?x4132 (bvadd (_ bv63 6) ?x500)))
 (let ((?x9465 (stack_s x_0 x_SLOAD_0 w_1 x_MLOAD_0 4 ?x4132)))
 (let (($x9814 (= (stack_s x_0 x_SLOAD_0 w_1 x_MLOAD_0 5 (bvadd (_ bv63 6) ?x4319)) (stack_s x_0 x_SLOAD_0 w_1 x_MLOAD_0 4 (bvadd (_ bv62 6) ?x500)))))
 (let (($x3743 (exc_halt_s 4)))
 (let (($x11166 (= $x3743 (or (exc_halt_s 3) (not (bvsle (_ bv0 6) (bvadd (_ bv63 6) (sc_s 3))))))))
 (let (($x646 (forall ((w (_ BitVec 256)) )(let ((?x5842 (storage_s x_0 x_SLOAD_0 w_1 x_MLOAD_0 3 w)))
 (let ((?x2736 (storage_s x_0 x_SLOAD_0 w_1 x_MLOAD_0 4 w)))
 (= ?x2736 ?x5842))))
 ))
 (let (($x11412 (forall ((n (_ BitVec 6)) )(let ((?x1974 (sc_s 3)))
 (let ((?x2640 (bvadd (_ bv63 6) ?x1974)))
 (let (($x5751 (bvsle ?x2640 n)))
 (let ((?x8359 (stack_s x_0 x_SLOAD_0 w_1 x_MLOAD_0 3 n)))
 (let ((?x10462 (stack_s x_0 x_SLOAD_0 w_1 x_MLOAD_0 4 n)))
 (or (= ?x10462 ?x8359) $x5751)))))))
 ))
 (let ((?x1496 (used_gas_s x_0 x_SLOAD_0 w_1 x_MLOAD_0 4)))
 (let ((?x1591 (storage_s x_0 x_SLOAD_0 w_1 x_MLOAD_0 3 (stack_s x_0 x_SLOAD_0 w_1 x_MLOAD_0 3 (bvadd (_ bv63 6) (sc_s 3))))))
 (let (($x9761 (not (= ((_ extract 6 6) (bvadd (_ bv1 7) (concat (_ bv0 1) (sc_s 2)))) (_ bv0 1)))))
 (let (($x3200 (exc_halt_s 2)))
 (let (($x8780 (exc_halt_s 3)))
 (let (($x10914 (forall ((w (_ BitVec 256)) )(let ((?x1942 (storage_s x_0 x_SLOAD_0 w_1 x_MLOAD_0 2 w)))
 (let ((?x5842 (storage_s x_0 x_SLOAD_0 w_1 x_MLOAD_0 3 w)))
 (= ?x5842 ?x1942))))
 ))
 (let (($x947 (forall ((n (_ BitVec 6)) )(let ((?x571 (stack_s x_0 x_SLOAD_0 w_1 x_MLOAD_0 2 n)))
 (let ((?x8359 (stack_s x_0 x_SLOAD_0 w_1 x_MLOAD_0 3 n)))
 (or (= ?x8359 ?x571) (bvsle (sc_s 2) n)))))
 ))
 (let ((?x1974 (sc_s 3)))
 (let (($x8893 (= ?x1974 (bvadd (_ bv1 6) (sc_s 2)))))
 (let ((?x8674 (used_gas_s x_0 x_SLOAD_0 w_1 x_MLOAD_0 3)))
 (let (($x6882 (= $x3200 (or (exc_halt_s 1) (not (bvsle (_ bv0 6) (bvadd (_ bv63 6) (sc_s 1))))))))
 (let (($x5144 (forall ((w (_ BitVec 256)) )(let ((?x6865 (storage_s x_0 x_SLOAD_0 w_1 x_MLOAD_0 1 w)))
 (let ((?x1942 (storage_s x_0 x_SLOAD_0 w_1 x_MLOAD_0 2 w)))
 (= ?x1942 ?x6865))))
 ))
 (let (($x4511 (forall ((n (_ BitVec 6)) )(let ((?x11411 (stack_s x_0 x_SLOAD_0 w_1 x_MLOAD_0 1 n)))
 (let ((?x571 (stack_s x_0 x_SLOAD_0 w_1 x_MLOAD_0 2 n)))
 (let ((?x154 (sc_s 1)))
 (let ((?x8586 (bvadd (_ bv63 6) ?x154)))
 (let (($x4241 (bvsle ?x8586 n)))
 (or $x4241 (= ?x571 ?x11411))))))))
 ))
 (let ((?x154 (sc_s 1)))
 (let ((?x2620 (sc_s 2)))
 (let (($x6125 (= ?x2620 ?x154)))
 (let ((?x6591 (used_gas_s x_0 x_SLOAD_0 w_1 x_MLOAD_0 2)))
 (let ((?x8586 (bvadd (_ bv63 6) ?x154)))
 (let ((?x365 (stack_s x_0 x_SLOAD_0 w_1 x_MLOAD_0 1 ?x8586)))
 (let (($x9139 (= (stack_s x_0 x_SLOAD_0 w_1 x_MLOAD_0 2 (bvadd (_ bv63 6) ?x2620)) (f_MLOAD x_0 x_SLOAD_0 w_1 x_MLOAD_0 ?x365))))
 (let (($x4988 (not (= ((_ extract 6 6) (bvadd (_ bv1 7) (concat (_ bv0 1) ?x72))) (_ bv0 1)))))
 (let (($x10558 (exc_halt_s 1)))
 (let (($x7152 (forall ((w (_ BitVec 256)) )(let ((?x4329 (storage_s x_0 x_SLOAD_0 w_1 x_MLOAD_0 0 w)))
 (let ((?x6865 (storage_s x_0 x_SLOAD_0 w_1 x_MLOAD_0 1 w)))
 (= ?x6865 ?x4329))))
 ))
 (let (($x11220 (forall ((n (_ BitVec 6)) )(let ((?x6382 (stack_s x_0 x_SLOAD_0 w_1 x_MLOAD_0 0 n)))
 (let ((?x11411 (stack_s x_0 x_SLOAD_0 w_1 x_MLOAD_0 1 n)))
 (or (= ?x11411 ?x6382) (bvsle (bvadd (_ bv63 6) (sc_s 0)) n)))))
 ))
 (let (($x7558 (= ?x154 (bvadd (_ bv1 6) ?x72))))
 (let ((?x4384 (bvadd (_ bv63 6) ?x72)))
 (let ((?x3125 (stack_s x_0 x_SLOAD_0 w_1 x_MLOAD_0 0 ?x4384)))
 (let (($x8008 (forall ((w0 (_ BitVec 256)) )(let (($x9772 (= (stack_s x_0 x_SLOAD_0 w_1 x_MLOAD_0 1 (bvadd (_ bv63 6) (sc_s 1))) w0)))
 (let ((?x10980 (f_MLOAD x_0 x_SLOAD_0 w_1 x_MLOAD_0 w0)))
 (= ?x10980 (ite $x9772 x_MLOAD_0 (_ bv0 256))))))
 ))
 (let (($x8059 (forall ((w (_ BitVec 256)) )(let (($x4742 (= w (stack_s x_0 x_SLOAD_0 w_1 x_MLOAD_0 3 (bvadd (_ bv63 6) (sc_s 3))))))
 (let ((?x4329 (storage_s x_0 x_SLOAD_0 w_1 x_MLOAD_0 0 w)))
 (= ?x4329 (ite $x4742 x_SLOAD_0 (_ bv0 256))))))
 ))
 (let (($x5702 (= ?x5455 0)))
 (let (($x10917 (not $x57)))
 (let (($x6113 (= (stack_s x_0 x_SLOAD_0 w_1 x_MLOAD_0 0 (_ bv0 6)) x_0)))
 (let (($x87 (= ?x72 (_ bv1 6))))
 (and $x87 $x6113 $x10917 $x5702 $x8059 $x8008 (= ?x365 ?x3125) (= (stack_s x_0 x_SLOAD_0 w_1 x_MLOAD_0 1 ?x4384) ?x3125) (= (used_gas_s x_0 x_SLOAD_0 w_1 x_MLOAD_0 1) (+ 3 ?x5455)) $x7558 $x11220 $x7152 (= $x10558 (or $x57 (not (bvsle (_ bv0 6) ?x4384)) $x4988)) $x9139 (= ?x6591 (+ 3 (used_gas_s x_0 x_SLOAD_0 w_1 x_MLOAD_0 1))) $x6125 $x4511 $x5144 $x6882 (= (stack_s x_0 x_SLOAD_0 w_1 x_MLOAD_0 3 ?x2620) w_1) (= ?x8674 (+ 3 ?x6591)) $x8893 $x947 $x10914 (= $x8780 (or $x3200 $x9761)) (= ?x9465 ?x1591) (= ?x1496 (+ 200 ?x8674)) (= ?x500 ?x1974) $x11412 $x646 $x11166 $x9814 (= (stack_s x_0 x_SLOAD_0 w_1 x_MLOAD_0 5 (bvadd (_ bv62 6) ?x4319)) ?x9465) $x3203 (= ?x4319 ?x500) $x6240 $x663 $x5223 (= (stack_t x_0 x_SLOAD_0 w_1 x_MLOAD_0 1 ?x63) w_1) (= (used_gas_t x_0 x_SLOAD_0 w_1 x_MLOAD_0 1) (+ 3 ?x7385)) $x11310 $x1806 $x631 $x7243 (= ?x3703 ?x2144) (= ?x2795 (+ 200 (used_gas_t x_0 x_SLOAD_0 w_1 x_MLOAD_0 1))) (= ?x6602 ?x6377) $x4142 $x10238 $x6265 (= ?x476 ?x2979) (= (stack_t x_0 x_SLOAD_0 w_1 x_MLOAD_0 3 ?x3220) ?x2979) (= (stack_t x_0 x_SLOAD_0 w_1 x_MLOAD_0 3 ?x8103) ?x3703) (= ?x7844 (+ 3 ?x2795)) (= ?x11964 (bvadd (_ bv1 6) ?x6602)) $x7879 $x6070 (= $x4112 $x5147) $x8019 $x6061 $x1808 $x209 $x9905 $x6130 $x73 $x3923 $x58 $x10495 $x4595 (not (and $x2078 $x1689 $x2802 $x900)))))))))))))))))))))))))))))))))))))))))))))))))))))))))))))))))))))))))))))))))))))))))))))))))))
 )
(check-sat)
(get-proof)
